NAME: random-16-30621
TYPE: TSP
COMMENT: size=16 seed=30621
DIMENSION: 34
EDGE_WEIGHT_TYPE: EUC_2D
NODE_COORD_SECTION
+0 147 160
-0 147 160
+1 19 424
-1 144 49
+2 583 502
-2 519 930
+3 264 556
-3 788 670
+4 570 664
-4 860 290
+5 562 186
-5 644 467
+6 990 48
-6 527 757
+7 250 298
-7 759 613
+8 660 716
-8 277 743
+9 275 715
-9 697 852
+10 599 670
-10 237 660
+11 535 70
-11 961 281
+12 24 836
-12 531 697
+13 508 425
-13 181 884
+14 645 627
-14 650 225
+15 815 730
-15 506 361
+16 904 191
-16 314 2
PRECEDENCE_SECTION
+0 -0
+1 -1
+2 -2
+3 -3
+4 -4
+5 -5
+6 -6
+7 -7
+8 -8
+9 -9
+10 -10
+11 -11
+12 -12
+13 -13
+14 -14
+15 -15
+16 -16
EOF
